
Gurobi 11.0.3 (win64) logging started Thu Jan  9 11:46:21 2025

Set parameter LogFile to value "logs2/c201.txt_10.txt"
Set parameter Heuristics to value 0.5
Set parameter SimplexPricing to value 2
Gurobi Optimizer version 11.0.3 build v11.0.3rc0 (win64 - Windows 10.0 (19045.2))

CPU model: Intel(R) Core(TM) i5-7200U CPU @ 2.50GHz, instruction set [SSE2|AVX|AVX2]
Thread count: 2 physical cores, 4 logical processors, using up to 4 threads

Optimize a model with 6132 rows, 5828 columns and 28634 nonzeros
Model fingerprint: 0x05769b48
Variable types: 102 continuous, 5726 integer (5726 binary)
Coefficient statistics:
  Matrix range     [1e+00, 1e+04]
  Objective range  [1e+01, 2e+03]
  Bounds range     [1e+00, 1e+00]
  RHS range        [1e+00, 1e+04]

User MIP start produced solution with objective 81000 (8.70s)
Loaded user MIP start with objective 81000
Processed MIP start in 17.03 seconds (0.00 work units)


Explored 0 nodes (0 simplex iterations) in 17.05 seconds (0.00 work units)
Thread count was 1 (of 4 available processors)

Solution count 2: 81000 81000 

Optimal solution found (tolerance 1.00e-04)
Best objective 8.100000000000e+04, best bound 8.100000000000e+04, gap 0.0000%

User-callback calls 31, time in user-callback 17.00 sec
